n_res = 4;
rc = [ 13, 10, 9, 13 ];
n_tasks = 30;
d = [ 2, 3, 10, 5, 8, 2, 3, 7, 3, 4, 10, 9, 3, 7, 2, 1, 7, 8, 9, 2, 2, 2, 9, 6, 9, 7, 9, 1, 3, 3 ];
rr = [| 1, 0, 0, 0, 0, 5, 3, 0, 0, 8, 0, 7, 10, 0, 0, 0, 0, 7, 2, 0, 0, 0, 0, 0, 0, 0, 0, 0, 0, 6
      | 0, 4, 0, 0, 0, 0, 0, 0, 0, 0, 0, 0, 0, 0, 0, 0, 0, 0, 0, 5, 0, 0, 6, 8, 0, 0, 0, 7, 3, 0
      | 0, 0, 0, 0, 0, 0, 0, 0, 8, 0, 0, 0, 0, 9, 3, 0, 0, 0, 0, 0, 9, 0, 0, 0, 9, 1, 0, 0, 0, 0
      | 0, 0, 8, 1, 6, 0, 0, 8, 0, 0, 5, 0, 0, 0, 0, 4, 6, 0, 0, 0, 0, 5, 0, 0, 0, 0, 7, 0, 0, 0 |];
suc = [ { 2 }, 
        { 3 }, 
        { 4 }, 
        { 5 }, 
        { 6 }, 
        { 7 }, 
        { 8 }, 
        { 9 }, 
        { 10 }, 
        { 11 }, 
        { 12 }, 
        { 13 }, 
        { 14 }, 
        { 15 }, 
        { 16 }, 
        { 17 }, 
        { 18 }, 
        { 19 }, 
        { 20 }, 
        { 21 }, 
        { 22 }, 
        { 23 }, 
        { 24 }, 
        { 25 }, 
        { 26 }, 
        { 27 }, 
        { 28 }, 
        { 29 }, 
        { 30 }, 
        {  }]; 
